p cnf 86 731
-43 -40 -37 0
-43 -40 -3 0
-43 -6 -3 0
-42 -39 -36 0
-42 -39 -2 0
-42 -5 -2 0
-41 -38 -35 0
-41 -38 -1 0
-41 -4 -1 0
-40 -37 -34 0
-39 -36 -33 0
-38 -35 -32 0
-37 -34 -31 0
-36 -33 -30 0
-35 -32 -29 0
-34 -31 -28 0
-33 -30 -27 0
-32 -29 -26 0
-31 -28 -25 0
-30 -27 -24 0
-29 -26 -23 0
-28 -25 -22 0
-27 -24 -21 0
-26 -23 -20 0
-25 -22 -19 0
-24 -21 -18 0
-23 -20 -17 0
-22 -19 -16 0
-21 -18 -15 0
-20 -17 -14 0
-19 -16 -13 0
-18 -15 -12 0
-17 -14 -11 0
-16 -13 -10 0
-15 -12 -9 0
-14 -11 -8 0
-13 -10 -7 0
-12 -9 -6 0
-11 -8 -5 0
-10 -7 -4 0
-9 -6 -3 0
-8 -5 -2 0
-7 -4 -1 0
1 14 0
1 20 0
1 25 0
1 31 0
1 44 0
1 44 77 0
1 50 0
1 50 83 0
1 77 0
1 83 0
2 15 0
2 21 0
2 26 0
2 32 0
2 45 0
2 45 78 0
2 51 0
2 51 84 0
2 78 0
2 84 0
3 16 0
3 22 0
3 27 0
3 33 0
3 46 0
3 46 79 0
3 52 0
3 52 85 0
3 79 0
3 85 0
4 17 0
4 23 0
4 28 0
4 34 0
4 47 0
4 47 80 0
4 53 0
4 53 86 0
4 80 0
4 86 0
5 18 0
5 24 0
5 29 0
5 35 0
5 44 0
5 44 54 0
5 48 0
5 48 81 0
5 54 0
5 81 0
6 19 0
6 25 0
6 30 0
6 36 0
6 45 0
6 45 55 0
6 49 0
6 49 82 0
6 55 0
6 82 0
7 20 0
7 26 0
7 31 0
7 37 0
7 46 0
7 46 56 0
7 50 0
7 50 83 0
7 56 0
7 83 0
8 21 0
8 27 0
8 32 0
8 38 0
8 47 0
8 47 57 0
8 51 0
8 51 84 0
8 57 0
8 84 0
9 22 0
9 28 0
9 33 0
9 39 0
9 48 0
9 48 58 0
9 52 0
9 52 85 0
9 58 0
9 85 0
10 23 0
10 29 0
10 34 0
10 40 0
10 49 0
10 49 59 0
10 53 0
10 53 86 0
10 59 0
10 86 0
11 24 0
11 30 0
11 35 0
11 41 0
11 44 0
11 44 54 0
11 50 0
11 50 60 0
11 54 0
11 60 0
12 25 0
12 31 0
12 36 0
12 42 0
12 45 0
12 45 55 0
12 51 0
12 51 61 0
12 55 0
12 61 0
13 26 0
13 32 0
13 37 0
13 43 0
13 46 0
13 46 56 0
13 52 0
13 52 62 0
13 56 0
13 62 0
14 27 0
14 33 0
14 38 0
14 47 0
14 47 57 0
14 53 0
14 53 63 0
14 57 0
14 63 0
15 28 0
15 34 0
15 39 0
15 48 0
15 48 58 0
15 54 0
15 54 64 0
15 58 0
15 64 0
16 29 0
16 35 0
16 40 0
16 49 0
16 49 59 0
16 55 0
16 55 65 0
16 59 0
16 65 0
17 30 0
17 36 0
17 41 0
17 50 0
17 50 60 0
17 56 0
17 56 66 0
17 60 0
17 66 0
18 31 0
18 37 0
18 42 0
18 51 0
18 51 61 0
18 57 0
18 57 67 0
18 61 0
18 67 0
19 32 0
19 38 0
19 43 0
19 52 0
19 52 62 0
19 58 0
19 58 68 0
19 62 0
19 68 0
20 33 0
20 39 0
20 53 0
20 53 63 0
20 59 0
20 59 69 0
20 63 0
20 69 0
21 34 0
21 40 0
21 54 0
21 54 64 0
21 60 0
21 60 70 0
21 64 0
21 70 0
22 35 0
22 41 0
22 55 0
22 55 65 0
22 61 0
22 61 71 0
22 65 0
22 71 0
23 36 0
23 42 0
23 56 0
23 56 66 0
23 62 0
23 62 72 0
23 66 0
23 72 0
24 37 0
24 43 0
24 57 0
24 57 67 0
24 63 0
24 63 73 0
24 67 0
24 73 0
25 38 0
25 58 0
25 58 68 0
25 64 0
25 64 74 0
25 68 0
25 74 0
26 39 0
26 59 0
26 59 69 0
26 65 0
26 65 75 0
26 69 0
26 75 0
27 40 0
27 60 0
27 60 70 0
27 66 0
27 66 76 0
27 70 0
27 76 0
28 41 0
28 61 0
28 61 71 0
28 67 0
28 67 77 0
28 71 0
28 77 0
29 42 0
29 62 0
29 62 72 0
29 68 0
29 68 78 0
29 72 0
29 78 0
30 43 0
30 63 0
30 63 73 0
30 69 0
30 69 79 0
30 73 0
30 79 0
31 64 0
31 64 74 0
31 70 0
31 70 80 0
31 74 0
31 80 0
32 65 0
32 65 75 0
32 71 0
32 71 81 0
32 75 0
32 81 0
33 66 0
33 66 76 0
33 72 0
33 72 82 0
33 76 0
33 82 0
34 67 0
34 67 77 0
34 73 0
34 73 83 0
34 77 0
34 83 0
35 68 0
35 68 78 0
35 74 0
35 74 84 0
35 78 0
35 84 0
36 69 0
36 69 79 0
36 75 0
36 75 85 0
36 79 0
36 85 0
37 70 0
37 70 80 0
37 76 0
37 76 86 0
37 80 0
37 86 0
38 44 0
38 44 77 0
38 71 0
38 71 81 0
38 77 0
38 81 0
39 45 0
39 45 78 0
39 72 0
39 72 82 0
39 78 0
39 82 0
40 46 0
40 46 79 0
40 73 0
40 73 83 0
40 79 0
40 83 0
41 47 0
41 47 80 0
41 74 0
41 74 84 0
41 80 0
41 84 0
42 48 0
42 48 81 0
42 75 0
42 75 85 0
42 81 0
42 85 0
43 49 0
43 49 82 0
43 76 0
43 76 86 0
43 82 0
43 86 0
44 0
44 49 0
44 49 54 0
44 49 59 0
44 49 77 0
44 49 82 0
44 54 0
44 54 59 0
44 54 64 0
44 54 77 0
44 54 82 0
44 59 0
44 67 77 0
44 72 0
44 72 77 0
44 72 82 0
44 77 0
44 77 82 0
44 82 0
45 0
45 50 0
45 50 55 0
45 50 60 0
45 50 78 0
45 50 83 0
45 55 0
45 55 60 0
45 55 65 0
45 55 78 0
45 55 83 0
45 60 0
45 68 78 0
45 73 0
45 73 78 0
45 73 83 0
45 78 0
45 78 83 0
45 83 0
46 0
46 51 0
46 51 56 0
46 51 61 0
46 51 79 0
46 51 84 0
46 56 0
46 56 61 0
46 56 66 0
46 56 79 0
46 56 84 0
46 61 0
46 69 79 0
46 74 0
46 74 79 0
46 74 84 0
46 79 0
46 79 84 0
46 84 0
47 0
47 52 0
47 52 57 0
47 52 62 0
47 52 80 0
47 52 85 0
47 57 0
47 57 62 0
47 57 67 0
47 57 80 0
47 57 85 0
47 62 0
47 70 80 0
47 75 0
47 75 80 0
47 75 85 0
47 80 0
47 80 85 0
47 85 0
48 0
48 53 0
48 53 58 0
48 53 63 0
48 53 81 0
48 53 86 0
48 58 0
48 58 63 0
48 58 68 0
48 58 81 0
48 58 86 0
48 63 0
48 71 81 0
48 76 0
48 76 81 0
48 76 86 0
48 81 0
48 81 86 0
48 86 0
49 0
49 54 0
49 54 59 0
49 54 64 0
49 54 82 0
49 59 0
49 59 64 0
49 59 69 0
49 59 82 0
49 64 0
49 72 82 0
49 77 0
49 77 82 0
49 82 0
50 0
50 55 0
50 55 60 0
50 55 65 0
50 55 83 0
50 60 0
50 60 65 0
50 60 70 0
50 60 83 0
50 65 0
50 73 83 0
50 78 0
50 78 83 0
50 83 0
51 0
51 56 0
51 56 61 0
51 56 66 0
51 56 84 0
51 61 0
51 61 66 0
51 61 71 0
51 61 84 0
51 66 0
51 74 84 0
51 79 0
51 79 84 0
51 84 0
52 0
52 57 0
52 57 62 0
52 57 67 0
52 57 85 0
52 62 0
52 62 67 0
52 62 72 0
52 62 85 0
52 67 0
52 75 85 0
52 80 0
52 80 85 0
52 85 0
53 0
53 58 0
53 58 63 0
53 58 68 0
53 58 86 0
53 63 0
53 63 68 0
53 63 73 0
53 63 86 0
53 68 0
53 76 86 0
53 81 0
53 81 86 0
53 86 0
54 0
54 59 0
54 59 64 0
54 59 69 0
54 64 0
54 64 69 0
54 64 74 0
54 69 0
54 82 0
55 0
55 60 0
55 60 65 0
55 60 70 0
55 65 0
55 65 70 0
55 65 75 0
55 70 0
55 83 0
56 0
56 61 0
56 61 66 0
56 61 71 0
56 66 0
56 66 71 0
56 66 76 0
56 71 0
56 84 0
57 0
57 62 0
57 62 67 0
57 62 72 0
57 67 0
57 67 72 0
57 67 77 0
57 72 0
57 85 0
58 0
58 63 0
58 63 68 0
58 63 73 0
58 68 0
58 68 73 0
58 68 78 0
58 73 0
58 86 0
59 0
59 64 0
59 64 69 0
59 64 74 0
59 69 0
59 69 74 0
59 69 79 0
59 74 0
60 0
60 65 0
60 65 70 0
60 65 75 0
60 70 0
60 70 75 0
60 70 80 0
60 75 0
61 0
61 66 0
61 66 71 0
61 66 76 0
61 71 0
61 71 76 0
61 71 81 0
61 76 0
62 0
62 67 0
62 67 72 0
62 67 77 0
62 72 0
62 72 77 0
62 72 82 0
62 77 0
63 0
63 68 0
63 68 73 0
63 68 78 0
63 73 0
63 73 78 0
63 73 83 0
63 78 0
64 0
64 69 0
64 69 74 0
64 69 79 0
64 74 0
64 74 79 0
64 74 84 0
64 79 0
65 0
65 70 0
65 70 75 0
65 70 80 0
65 75 0
65 75 80 0
65 75 85 0
65 80 0
66 0
66 71 0
66 71 76 0
66 71 81 0
66 76 0
66 76 81 0
66 76 86 0
66 81 0
67 0
67 72 0
67 72 77 0
67 72 82 0
67 77 0
67 77 82 0
67 82 0
68 0
68 73 0
68 73 78 0
68 73 83 0
68 78 0
68 78 83 0
68 83 0
69 0
69 74 0
69 74 79 0
69 74 84 0
69 79 0
69 79 84 0
69 84 0
70 0
70 75 0
70 75 80 0
70 75 85 0
70 80 0
70 80 85 0
70 85 0
71 0
71 76 0
71 76 81 0
71 76 86 0
71 81 0
71 81 86 0
71 86 0
72 0
72 77 0
72 77 82 0
72 82 0
73 0
73 78 0
73 78 83 0
73 83 0
74 0
74 79 0
74 79 84 0
74 84 0
75 0
75 80 0
75 80 85 0
75 85 0
76 0
76 81 0
76 81 86 0
76 86 0
77 0
77 82 0
78 0
78 83 0
79 0
79 84 0
80 0
80 85 0
81 0
81 86 0
82 0
83 0
84 0
85 0
86 0
